concert_cplex_prototype/instances/minha/csp20.lp
\ENCODING=ISO-8859-1
\Problem name: spp

Minimize
 obj: 130 x1 + 91 x2 + 91 x3 + 109 x4 + 300 x5 + 121 x6 + 131 x7 + 360 x8
      + 187 x9 + 77 x10 + 170 x11 + 236 x12 + 287 x13 + 286 x14 + 245 x15
Subject To
 c1:  x7 + x14 >= 1
 c2:  x5 >= 1
 c3:  x8 + x15 >= 1
 c4:  x9 + x13 >= 1
 c5:  x10 >= 1
 c6:  x1 + x4 + x6 >= 1
 c7:  x11 >= 1
 c8:  x2 + x3 >= 1
 c9:  x12 >= 1
 c10: x9 >= 1
 c11: x7 >= 1
 c12: x13 >= 1
 c13: x14 >= 1
 c14: x15 >= 1
 c15: x1 >= 1
 c16: x6 + x12 >= 1
 c17: x2 + x3 + x4 >= 1
 c18: x5 + x8 + x11 >= 1
 c19: x10 >= 1
 c20: >= 1
Bounds
 0 <= x1 <= 1
 0 <= x2 <= 1
 0 <= x3 <= 1
 0 <= x4 <= 1
 0 <= x5 <= 1
 0 <= x6 <= 1
 0 <= x7 <= 1
 0 <= x8 <= 1
 0 <= x9 <= 1
 0 <= x10 <= 1
 0 <= x11 <= 1
 0 <= x12 <= 1
 0 <= x13 <= 1
 0 <= x14 <= 1
 0 <= x15 <= 1
End
